p cnf 10 27
-3 -10 7 0
10 -1 0
-8 9 3 -4 0
-5 -4 -10 0
3 -2 0
8 6 0
-6 4 -10 7 0
9 -3 0
-4 -1 0
-2 -10 -1 0
-5 -2 -9 0
-5 -3 -10 0
1 -6 3 4 0
-8 0
4 0
-8 0
-8 -6 0
3 4 -5 0
-1 -9 0
8 -3 0
8 9 4 -10 0
-7 -5 5 -9 0
4 5 0
9 2 -3 0
2 5 -2 6 0
8 -6 -3 7 0
-7 10 2 4 0
